files/upTests/___types/partition/0002.eprime
language ESSENCE' 1.0

find p_PartitionSetOfSets_SetExplicit_SetExplicitVarSizeWithDefault:
        matrix indexed by [int(1..3), int(1..9)] of int(1..10)
such that
    forAll v__0 : int(1..2)
        . p_PartitionSetOfSets_SetExplicit_SetExplicitVarSizeWithDefault[v__0, ..]
          <lex
          p_PartitionSetOfSets_SetExplicit_SetExplicitVarSizeWithDefault[v__0 + 1, ..],
    forAll v__0 : int(1..3)
        . (forAll v__1 : int(1..8)
               . p_PartitionSetOfSets_SetExplicit_SetExplicitVarSizeWithDefault[v__0, v__1]
                 !=
                 10
                 ->
                 p_PartitionSetOfSets_SetExplicit_SetExplicitVarSizeWithDefault[v__0, v__1]
                 <
                 p_PartitionSetOfSets_SetExplicit_SetExplicitVarSizeWithDefault[v__0, v__1 + 1])
          /\
          (forAll v__1 : int(1..8)
               . p_PartitionSetOfSets_SetExplicit_SetExplicitVarSizeWithDefault[v__0, v__1]
                 <=
                 p_PartitionSetOfSets_SetExplicit_SetExplicitVarSizeWithDefault[v__0, v__1 + 1]),
    forAll v__0 : int(1..3)
        . (sum v__1 : int(1..9)
               . (p_PartitionSetOfSets_SetExplicit_SetExplicitVarSizeWithDefault[v__0, v__1]
                  !=
                  10)
                 *
                 1)
          <
          5,
    forAll v__0 : int(1..3)
        . (sum v__1 : int(1..9)
               . p_PartitionSetOfSets_SetExplicit_SetExplicitVarSizeWithDefault[v__0, v__1]
                 !=
                 10)
          >=
          1,
    forAll v__0 : int(1..9)
        . (sum v__1 : int(1..3)
               . (sum v__2 : int(1..9)
                      . (p_PartitionSetOfSets_SetExplicit_SetExplicitVarSizeWithDefault[v__1, v__2]
                         !=
                         10)
                        *
                        (p_PartitionSetOfSets_SetExplicit_SetExplicitVarSizeWithDefault[v__1, v__2]
                         =
                         v__0)))
          <=
          1
