files/upTests/___types/partition/0002.eprime.solution
language ESSENCE' 1.0
$ minion Nodes: 27
$ minion TotalTime: 0.084639
$ Savile Row TotalTime: 2.966
letting p_MSetOfSets_MSetExplicit_SetExplicitVarSizeWithDefault be [[1, 2, 3, 4, 10, 10, 10, 10, 10;int(1..9)], 
[5, 6, 7, 8, 10, 10, 10, 10, 10;int(1..9)], 
[9, 10, 10, 10, 10, 10, 10, 10, 10;int(1..9)];int(1..3)]
